/*********************************************
    * Lab01 - FCD_FCR
    * Author: Coso
    * Creation Date: Mar, 2019
    *********************************************/
instance_name = "small_instance_15_FCD_FCR";

d = 2;
r = 3;

SCj = [211 193];
Fj = [1708, 1764];
Dk = [73 79 93];

Cjk = [[42 42 33]
 [75 53 65]];
Fjk = [[560 455 499]
 [688 600 336]];
